qbf_easy_train/easy_3950_SAT.qdimacs
p cnf 20 45
a 19 4 13 0
e 1 2 3 5 6 7 8 9 10 11 12 14 15 16 17 18 20 0
1 -2 -3 0
-1 2 -3 0
1 2 3 0
-1 -2 3 0
-4 5 -6 0
4 -5 -6 0
-4 -5 6 0
4 5 6 0
-9 -7 0
-9 -8 0
7 8 9 0
10 -6 0
10 -9 0
6 9 -10 0
11 3 0
11 -10 0
-3 10 -11 0
-13 12 0
-13 8 0
-12 -8 13 0
14 13 0
14 -4 0
-13 4 -14 0
2 -4 -15 0
-2 4 -15 0
2 4 15 0
-2 -4 15 0
17 16 0
17 -4 0
-16 4 -17 0
-18 -15 0
-18 17 0
15 -17 18 0
14 -18 -19 0
-14 18 -19 0
14 18 19 0
-14 -18 19 0
20 -11 0
20 19 0
11 -19 -20 0
3 -12 4 -2 0
-10 -9 14 0
-11 14 -19 -20 2 0
4 8 -7 -20 -12 10 0
20 0
