sat_easy_train/easy_3950_SAT.dimacs
p cnf 142 492
-3 1 0
-3 -2 0
-1 2 3 0
-3 4 -5 0
3 -4 -5 0
-3 -4 5 0
3 4 5 0
-8 -6 0
-8 -7 0
6 7 8 0
10 -6 -11 0
-10 6 -11 0
10 6 11 0
-10 -6 11 0
-11 6 -12 0
11 -6 -12 0
-11 -6 12 0
11 6 12 0
9 -12 -13 0
-9 12 -13 0
9 12 13 0
-9 -12 13 0
8 13 -14 0
-8 -13 -14 0
8 -13 14 0
-8 13 14 0
-15 5 0
-15 -14 0
-5 14 15 0
18 -17 0
18 -1 0
17 1 -18 0
19 -18 0
19 -1 0
18 1 -19 0
-16 -9 -20 0
16 9 -20 0
-16 9 20 0
16 -9 20 0
-20 -2 -21 0
20 2 -21 0
-20 2 21 0
20 -2 21 0
21 -22 -23 0
-21 22 -23 0
21 22 23 0
-21 -22 23 0
-23 22 -24 0
23 -22 -24 0
-23 -22 24 0
23 22 24 0
25 19 0
25 -24 0
-19 24 -25 0
-26 -16 0
-26 25 0
16 -25 26 0
20 -27 -28 0
-20 27 -28 0
20 27 28 0
-20 -27 28 0
9 28 -29 0
-9 -28 -29 0
9 -28 29 0
-9 28 29 0
22 -30 -31 0
-22 30 -31 0
22 30 31 0
-22 -30 31 0
-29 31 -32 0
29 -31 -32 0
-29 -31 32 0
29 31 32 0
-33 -1 0
-33 -11 0
1 11 33 0
32 33 -34 0
-32 -33 -34 0
32 -33 34 0
-32 33 34 0
36 19 0
36 -35 0
-19 35 -36 0
37 30 0
37 6 0
-30 -6 -37 0
37 4 -38 0
-37 -4 -38 0
37 -4 38 0
-37 4 38 0
39 -36 0
39 38 0
36 -38 -39 0
40 39 0
40 14 0
-39 -14 -40 0
-41 34 0
-41 -40 0
-34 40 41 0
-42 -27 0
-42 -10 0
27 10 42 0
-7 42 -43 0
7 -42 -43 0
-7 -42 43 0
7 42 43 0
44 -8 0
44 16 0
8 -16 -44 0
-45 43 0
-45 -44 0
-43 44 45 0
-27 -39 -46 0
27 39 -46 0
-27 39 46 0
27 -39 46 0
45 -46 -47 0
-45 46 -47 0
45 46 47 0
-45 -46 47 0
-41 47 -48 0
41 -47 -48 0
-41 -47 48 0
41 47 48 0
2 -17 -49 0
-2 17 -49 0
2 17 49 0
-2 -17 49 0
6 -39 -50 0
-6 39 -50 0
6 39 50 0
-6 -39 50 0
51 -49 0
51 -50 0
49 50 -51 0
52 30 0
52 4 0
-30 -4 -52 0
-53 22 0
-53 -52 0
-22 52 53 0
-54 -12 0
-54 -53 0
12 53 54 0
55 51 0
55 54 0
-51 -54 -55 0
55 -13 -56 0
-55 13 -56 0
55 13 56 0
-55 -13 56 0
-57 16 0
-57 -7 0
-16 7 57 0
-56 57 -58 0
56 -57 -58 0
-56 -57 58 0
56 57 58 0
59 -48 0
59 -58 0
48 58 -59 0
60 -26 0
60 -59 0
26 59 -60 0
61 -15 0
61 60 0
15 -60 -61 0
-31 -7 -62 0
31 7 -62 0
-31 7 62 0
31 -7 62 0
-35 -62 -63 0
35 62 -63 0
-35 62 63 0
35 -62 63 0
6 -52 -64 0
-6 52 -64 0
6 52 64 0
-6 -52 64 0
-65 -57 0
-65 28 0
57 -28 65 0
65 54 -66 0
-65 -54 -66 0
65 -54 66 0
-65 54 66 0
-67 -64 0
-67 -66 0
64 66 67 0
68 -31 0
68 53 0
31 -53 -68 0
69 -35 0
69 68 0
35 -68 -69 0
70 -67 0
70 69 0
67 -69 -70 0
-63 70 -71 0
63 -70 -71 0
-63 -70 71 0
63 70 71 0
72 -7 0
72 16 0
7 -16 -72 0
-73 6 0
-73 -3 0
-6 3 73 0
-74 42 -75 0
74 -42 -75 0
-74 -42 75 0
74 42 75 0
-73 -75 -76 0
73 75 -76 0
-73 75 76 0
73 -75 76 0
77 62 0
77 -52 0
-62 52 -77 0
-78 76 0
-78 77 0
-76 -77 78 0
72 78 -79 0
-72 -78 -79 0
72 -78 79 0
-72 78 79 0
80 71 0
80 79 0
-71 -79 -80 0
23 37 -82 0
-23 -37 -82 0
23 -37 82 0
-23 37 82 0
83 81 0
83 82 0
-81 -82 -83 0
-20 -3 -84 0
20 3 -84 0
-20 3 84 0
20 -3 84 0
-85 -83 0
-85 -84 0
83 84 85 0
86 2 0
86 -35 0
-2 35 -86 0
-13 87 0
13 87 0
-88 -86 0
-88 87 0
86 -87 88 0
-10 -52 -89 0
10 52 -89 0
-10 52 89 0
10 -52 89 0
-90 -89 0
-90 -27 0
89 27 90 0
-91 88 0
-91 -90 0
-88 90 91 0
92 -85 0
92 91 0
85 -91 -92 0
-37 -3 -93 0
37 3 -93 0
-37 3 93 0
37 -3 93 0
-94 -12 0
-94 35 0
12 -35 94 0
-95 -93 0
-95 -94 0
93 94 95 0
96 5 0
96 -50 0
-5 50 -96 0
97 -95 0
97 -96 0
95 96 -97 0
98 -45 0
98 19 0
45 -19 -98 0
99 36 0
99 -94 0
-36 94 -99 0
-98 -99 -100 0
98 99 -100 0
-98 99 100 0
98 -99 100 0
97 -100 -101 0
-97 100 -101 0
97 100 101 0
-97 -100 101 0
-92 101 -102 0
92 -101 -102 0
-92 -101 102 0
92 101 102 0
-103 -51 0
-103 14 0
51 -14 103 0
104 -102 0
104 -103 0
102 103 -104 0
-80 104 -105 0
80 -104 -105 0
-80 -104 105 0
80 104 105 0
-106 -61 0
-106 -105 0
61 105 106 0
-31 -86 -107 0
31 86 -107 0
-31 86 107 0
31 -86 107 0
108 52 0
108 -11 0
-52 11 -108 0
-109 107 0
-109 -108 0
-107 108 109 0
110 -62 0
110 -52 0
62 52 -110 0
111 -42 0
111 -110 0
42 110 -111 0
-37 38 -112 0
37 -38 -112 0
-37 -38 112 0
37 38 112 0
111 -112 -113 0
-111 112 -113 0
111 112 113 0
-111 -112 113 0
114 -22 0
114 38 0
22 -38 -114 0
115 113 0
115 -114 0
-113 114 -115 0
-116 -109 0
-116 -115 0
109 115 116 0
-117 -20 0
-117 49 0
20 -49 117 0
118 -6 0
118 93 0
6 -93 -118 0
119 117 0
119 118 0
-117 -118 -119 0
120 -8 0
120 -24 0
8 24 -120 0
121 -119 0
121 120 0
119 -120 -121 0
36 21 -122 0
-36 -21 -122 0
36 -21 122 0
-36 21 122 0
122 53 -123 0
-122 -53 -123 0
122 -53 123 0
-122 53 123 0
124 123 0
124 -55 0
-123 55 -124 0
-125 86 0
-125 17 0
-86 -17 125 0
-94 -125 -126 0
94 125 -126 0
-94 125 126 0
94 -125 126 0
-127 125 0
-127 -126 0
-125 126 127 0
-124 127 -128 0
124 -127 -128 0
-124 -127 128 0
124 127 128 0
130 129 0
130 27 0
-129 -27 -130 0
93 130 -131 0
-93 -130 -131 0
93 -130 131 0
-93 130 131 0
132 -27 0
132 -74 0
27 74 -132 0
-133 -27 0
-133 132 0
27 -132 133 0
134 90 0
134 68 0
-90 -68 -134 0
133 -134 -135 0
-133 134 -135 0
133 134 135 0
-133 -134 135 0
-136 131 0
-136 135 0
-131 -135 136 0
137 -128 0
137 -136 0
128 136 -137 0
-138 -121 0
-138 137 0
121 -137 138 0
-52 7 -139 0
52 -7 -139 0
-52 -7 139 0
52 7 139 0
-140 138 0
-140 -139 0
-138 139 140 0
116 140 -141 0
-116 -140 -141 0
116 -140 141 0
-116 140 141 0
-142 -106 0
-142 -141 0
106 141 142 0
109 -141 122 -69 118 0
-55 -93 -35 -49 25 95 0
49 -68 119 0
-73 -93 47 -30 113 21 0
138 -19 -44 -89 -9 0
-90 -3 0
108 -134 0
-56 -44 0
-8 -20 23 138 0
11 13 22 55 -72 57 0
-62 -47 0
-95 65 0
-37 79 -126 122 -21 94 0
22 40 16 -98 0
-37 -127 40 94 0
33 -44 -57 14 0
32 93 86 -59 -77 78 0
-141 -86 -128 -82 -81 -90 0
-81 -17 0
-130 -89 -113 -100 0
-51 -76 -39 0
-61 -105 44 80 -100 85 0
110 124 71 -59 0
6 -140 56 85 32 0
-95 7 -87 134 93 0
-37 40 -30 57 0
93 -81 141 0
-137 42 -30 8 91 66 0
-21 1 89 -113 -41 66 0
-136 134 0
60 77 0
131 69 -74 0
-81 -99 47 75 -82 0
-119 -60 -11 -37 0
-45 -49 -90 134 0
91 33 61 -29 0
-109 135 0
101 32 0
42 -2 7 -37 97 0
131 -96 0
131 -98 86 -72 125 43 0
71 -15 0
96 -54 45 0
9 53 123 108 0
-12 -53 0
57 79 41 -29 -6 0
68 101 -58 43 -40 0
-15 -41 0
8 139 -131 106 79 0
-13 -27 -94 122 56 0
-69 -17 139 112 -105 0
-16 -128 0
81 1 61 95 73 129 0
114 58 0
89 -62 135 0
127 59 93 0
-98 -91 -19 0
-24 126 139 -26 0
-13 -87 -55 34 12 0
75 -91 0
-86 29 -130 -57 0
84 79 -52 0
125 85 -79 0
-20 -46 -115 134 0
142 0
